words_hard_train/5995.qaiger
aag 88 15 0 1 73
2
4
8
10
14
16
20
22
26
30
50
52
62
64
90
176
6 3 4
12 9 10
18 15 16
24 21 22
28 25 26
32 28 31
34 20 23
36 33 35
38 19 37
40 14 17
42 39 41
44 13 43
46 8 11
48 45 47
54 51 52
56 49 55
58 50 53
60 57 59
66 63 64
68 61 67
70 62 65
72 69 71
74 7 73
76 2 5
78 75 77
80 23 17
82 80 11
84 82 53
86 84 65
88 86 5
92 88 91
94 89 90
96 93 95
98 79 97
100 78 96
102 99 101
104 84 63
106 85 62
108 105 107
110 109 60
112 82 50
114 83 51
116 113 115
118 117 49
120 111 119
122 37 14
124 36 15
126 123 125
128 127 23
130 126 22
132 129 131
134 27 20
136 132 134
138 86 3
140 87 2
142 139 141
144 142 73
146 136 145
148 120 146
150 116 48
152 108 61
154 151 153
156 80 8
158 81 9
160 157 159
162 161 42
164 160 43
166 163 165
168 143 72
170 167 169
172 154 170
174 148 172
176 103 174
i0 2 y2[6]
i1 1 x1[6]
i2 2 y2[3]
i3 1 x1[3]
i4 2 y2[2]
i5 1 x1[2]
i6 2 y2[1]
i7 1 x1[1]
i8 2 y2[0]
i9 1 x1[0]
i10 2 y2[4]
i11 1 x1[4]
i12 2 y2[5]
i13 1 x1[5]
i14 2 y2[7]
o0 bool[0]
c
simplified
  ==
    subtract
      1
      1 x1
    add
      invert
        1 x1
      2 y2
