words_hard_train/5995.qaiger.qdimacs
p cnf 88 220
a 32 2 5 8 11 15 26 0
e 1 3 4 6 7 9 10 12 13 14 16 17 18 19 20 21 22 23 24 25 27 28 29 30 31 33 34 35 36 37 38 39 40 41 42 43 44 45 46 47 48 49 50 51 52 53 54 55 56 57 58 59 60 61 62 63 64 65 66 67 68 69 70 71 72 73 74 75 76 77 78 79 80 81 82 83 84 85 86 87 88 0
1 -2 3 0
-1 -3 0
2 -3 0
4 -5 6 0
-4 -6 0
5 -6 0
7 -8 9 0
-7 -9 0
8 -9 0
10 -11 12 0
-10 -12 0
11 -12 0
12 -13 14 0
-12 -14 0
13 -14 0
-14 15 16 0
14 -16 0
-15 -16 0
-10 11 17 0
10 -17 0
-11 -17 0
16 17 18 0
-16 -18 0
-17 -18 0
9 18 19 0
-9 -19 0
-18 -19 0
-7 8 20 0
7 -20 0
-8 -20 0
19 20 21 0
-19 -21 0
-20 -21 0
6 21 22 0
-6 -22 0
-21 -22 0
-4 5 23 0
4 -23 0
-5 -23 0
22 23 24 0
-22 -24 0
-23 -24 0
25 -26 27 0
-25 -27 0
26 -27 0
24 27 28 0
-24 -28 0
-27 -28 0
-25 26 29 0
25 -29 0
-26 -29 0
28 29 30 0
-28 -30 0
-29 -30 0
31 -32 33 0
-31 -33 0
32 -33 0
30 33 34 0
-30 -34 0
-33 -34 0
-31 32 35 0
31 -35 0
-32 -35 0
34 35 36 0
-34 -36 0
-35 -36 0
3 36 37 0
-3 -37 0
-36 -37 0
-1 2 38 0
1 -38 0
-2 -38 0
37 38 39 0
-37 -39 0
-38 -39 0
11 8 40 0
-11 -40 0
-8 -40 0
-40 5 41 0
40 -41 0
-5 -41 0
-41 26 42 0
41 -42 0
-26 -42 0
-42 32 43 0
42 -43 0
-32 -43 0
-43 2 44 0
43 -44 0
-2 -44 0
-44 45 46 0
44 -46 0
-45 -46 0
44 -45 47 0
-44 -47 0
45 -47 0
46 47 48 0
-46 -48 0
-47 -48 0
39 48 49 0
-39 -49 0
-48 -49 0
-39 -48 50 0
39 -50 0
48 -50 0
49 50 51 0
-49 -51 0
-50 -51 0
-42 31 52 0
42 -52 0
-31 -52 0
42 -31 53 0
-42 -53 0
31 -53 0
52 53 54 0
-52 -54 0
-53 -54 0
54 -30 55 0
-54 -55 0
30 -55 0
-41 -25 56 0
41 -56 0
25 -56 0
41 25 57 0
-41 -57 0
-25 -57 0
56 57 58 0
-56 -58 0
-57 -58 0
58 24 59 0
-58 -59 0
-24 -59 0
55 59 60 0
-55 -60 0
-59 -60 0
18 -7 61 0
-18 -61 0
7 -61 0
-18 7 62 0
18 -62 0
-7 -62 0
61 62 63 0
-61 -63 0
-62 -63 0
63 11 64 0
-63 -64 0
-11 -64 0
-63 -11 65 0
63 -65 0
11 -65 0
64 65 66 0
-64 -66 0
-65 -66 0
13 -10 67 0
-13 -67 0
10 -67 0
-66 -67 68 0
66 -68 0
67 -68 0
-43 1 69 0
43 -69 0
-1 -69 0
43 -1 70 0
-43 -70 0
1 -70 0
69 70 71 0
-69 -71 0
-70 -71 0
-71 36 72 0
71 -72 0
-36 -72 0
-68 72 73 0
68 -73 0
-72 -73 0
-60 -73 74 0
60 -74 0
73 -74 0
-58 -24 75 0
58 -75 0
24 -75 0
-54 30 76 0
54 -76 0
-30 -76 0
75 76 77 0
-75 -77 0
-76 -77 0
-40 -4 78 0
40 -78 0
4 -78 0
40 4 79 0
-40 -79 0
-4 -79 0
78 79 80 0
-78 -80 0
-79 -80 0
80 -21 81 0
-80 -81 0
21 -81 0
-80 21 82 0
80 -82 0
-21 -82 0
81 82 83 0
-81 -83 0
-82 -83 0
71 -36 84 0
-71 -84 0
36 -84 0
83 84 85 0
-83 -85 0
-84 -85 0
-77 -85 86 0
77 -86 0
85 -86 0
-74 -86 87 0
74 -87 0
86 -87 0
51 -87 88 0
-51 -88 0
87 -88 0
88 0
